&CONTROL
calculation = 'scf'
verbosity = 'high'
wf_collect = .true.
tstress = .true.
/
&SYSTEM
input_dft = 'PBE'
ibrav = 0
ecutwfc = 50
nosym = .true.
nspin = 2
tot_charge = -1
tot_magnetization = 2
nat = 63
ntyp = 2
/
&ELECTRONS
conv_thr = 1D-08
/
K_POINTS gamma
CELL_PARAMETERS angstrom
7.136032  0.000000  0.000000
0.000000  7.136032  0.000000
0.000000  0.000000  7.136032
ATOMIC_SPECIES
C  12.01099968  C_ONCV_PBE-1.0.upf
N  14.00699997  N_ONCV_PBE-1.0.upf
ATOMIC_POSITIONS angstrom
C    7.13567499  7.13567499  7.13567499
C    0.89157581  0.89157581  0.89157581
C    7.13010888  1.78643420  1.78643420
C    0.88208489  2.67586920  2.67586920
C    1.78643420  7.13010888  1.78643420
C    2.67586920  0.88208489  2.67586920
C    1.78643420  1.78643420  7.13010888
C    2.67586920  2.67586920  0.88208489
C    0.01020453  0.01020453  3.57536601
C    0.89271758  0.89271758  4.46037667
C    0.00663651  1.78036857  5.34938351
C    0.89971089  2.67886633  6.23760539
C    1.78036857  0.00663651  5.34938351
C    2.67886633  0.89971089  6.23760539
C    1.77280438  1.77280438  3.56601781
C    2.67729641  2.67729641  4.41713232
C    0.01020453  3.57536601  0.01020453
C    0.89271758  4.46037667  0.89271758
C    0.00663651  5.34938351  1.78036857
C    0.89971089  6.23760539  2.67886633
C    1.77280438  3.56601781  1.77280438
C    2.67729641  4.41713232  2.67729641
C    1.78036857  5.34938351  0.00663651
C    2.67886633  6.23760539  0.89971089
C    7.12796807  3.57322520  3.57322520
C    0.89228942  4.46087619  4.46087619
C    7.13324874  5.35088208  5.35088208
C    0.89136173  6.24338557  6.24338557
C    1.79942178  3.57814906  5.33546825
C    2.69378064  4.47158024  6.23025528
C    1.79942178  5.33546825  3.57814906
C    2.69378064  6.23025528  4.47158024
C    3.57536601  0.01020453  0.01020453
C    4.46037667  0.89271758  0.89271758
C    3.56601781  1.77280438  1.77280438
C    4.41713232  2.67729641  2.67729641
C    5.34938351  0.00663651  1.78036857
C    6.23760539  0.89971089  2.67886633
C    5.34938351  1.78036857  0.00663651
C    6.23760539  2.67886633  0.89971089
C    3.57322520  7.12796807  3.57322520
C    4.46087619  0.89228942  4.46087619
C    3.57814906  1.79942178  5.33546825
C    4.47158024  2.69378064  6.23025528
C    5.35088208  7.13324874  5.35088208
C    6.24338557  0.89136173  6.24338557
C    5.33546825  1.79942178  3.57814906
C    6.23025528  2.69378064  4.47158024
C    3.57322520  3.57322520  7.12796807
C    4.46087619  4.46087619  0.89228942
C    3.57814906  5.33546825  1.79942178
C    4.47158024  6.23025528  2.69378064
C    5.33546825  3.57814906  1.79942178
C    6.23025528  4.47158024  2.69378064
C    5.35088208  5.35088208  7.13324874
C    6.24338557  6.24338557  0.89136173
N    3.47560428  3.47560428  3.47560428
C    3.51178396  5.42895027  5.42895027
C    4.45102847  6.24181565  6.24181565
C    5.42895027  3.51178396  5.42895027
C    6.24181565  4.45102847  6.24181565
C    5.42895027  5.42895027  3.51178396
C    6.24181565  6.24181565  4.45102847
